nb_creneau = 30;
max_groupe = nb_groupe_tp+nb_groupe_td+1;
nb_groupe_tp = 3;
nb_groupe_td = 2;
max_UE = 3;
COURS = 0..max_UE;
UE = 1..max_UE;
TYPE = 1..3;
PROF = 1..3;
GROUPE = 1..max_groupe;
type_groupe = [1,2,2,3,3,3];
CRENEAU = 1..nb_creneau;

volume = [|2,2,3|
           3,2,3|
           2,2,3|];

profs =  [|1,1,1|
           2,2,2|
           3,3,3|];

dependances_groupes = [|false, true, true, true, true, true|
                        false,false,false, true, true,false|
                        false,false,false,false, true, true|
                        false,false,false,false,false,false|
                        false,false,false,false,false,false|
                        false,false,false,false,false,false|];

%cours 1 a une priorité de 2, cours 2 a une priorité de 1, cours 3 a une priorité de 3
priorite_ue = [1,1,1];
limite_ue = [20,10,14];
